  6	38
  8
  0	 11	 34	 25	 72	 49	 63	 77	
 18
  0	 35	  6	 44	  7	 29	 73	 18	 67	 17	 56	 33	 71	 45	 55	 12	 50	 77	
 14
  0	 36	 16	 74	 54	 19	 28	 23	 57	 27	 61	 65	 66	 77	
 12
  0	  9	 47	  1	  5	  8	 39	 43	  3	 46	 41	 77	
 14
  0	 38	  2	 15	 53	 76	 21	 26	 59	 40	 24	 64	 62	 77	
 22
  0	 10	 37	 22	 20	 60	 58	 14	 48	 75	 32	 52	 70	 31	 13	  4	 69	 30	 42	 51	 68	 77	
